aux_benchmarks/lp2sat/smokers_6_3_prob.lp.lp.cnf
p cnf 233 702
16 50 0
-16 -50 0
-64 -17 -73 0
-64 17 0
-65 -17 -73 0
-65 17 0
77 -16 0
-77 16 0
152 -77 0
-152 77 0
73 -77 0
-73 77 0
78 -21 -30 0
-78 21 0
-78 30 0
153 -78 0
-153 78 0
154 -64 -78 68 0
-154 64 0
-154 78 0
-154 -68 0
155 -81 -78 68 64 0
-155 81 0
-155 78 0
-155 -68 0
-155 -64 0
156 -81 -68 -64 -78 0
-156 81 0
-156 68 0
-156 64 0
-156 78 0
81 -65 -78 69 0
-81 65 0
-81 78 0
-81 -69 0
79 -78 -80 0
-79 78 0
-79 80 0
75 -79 73 0
-75 79 0
-75 -73 0
157 -68 -64 -78 0
-157 68 0
-157 64 0
-157 78 0
158 -78 68 64 0
-158 78 0
-158 -68 0
-158 -64 0
83 -64 -78 68 0
-83 64 0
-83 78 0
-83 -68 0
159 -82 -65 -78 69 0
-159 82 0
-159 65 0
-159 78 0
-159 -69 0
160 -83 -69 -78 65 0
-160 83 0
-160 69 0
-160 78 0
-160 -65 0
-79 84 0
76 -78 -84 0
-76 78 0
-76 84 0
-75 76 0
-17 75 73 0
18 51 0
-18 -51 0
-66 -19 -86 0
-66 19 0
-67 -19 -86 0
-67 19 0
90 -18 0
-90 18 0
161 -90 0
-161 90 0
86 -90 0
-86 90 0
91 -24 -25 0
-91 24 0
-91 25 0
162 -91 0
-162 91 0
163 -66 -91 70 0
-163 66 0
-163 91 0
-163 -70 0
164 -94 -91 70 66 0
-164 94 0
-164 91 0
-164 -70 0
-164 -66 0
165 -94 -70 -66 -91 0
-165 94 0
-165 70 0
-165 66 0
-165 91 0
94 -67 -91 71 0
-94 67 0
-94 91 0
-94 -71 0
92 -91 -93 0
-92 91 0
-92 93 0
166 -92 86 0
-166 92 0
-166 -86 0
167 -70 -66 -91 0
-167 70 0
-167 66 0
-167 91 0
168 -91 70 66 0
-168 91 0
-168 -70 0
-168 -66 0
96 -66 -91 70 0
-96 66 0
-96 91 0
-96 -70 0
169 -95 -67 -91 71 0
-169 95 0
-169 67 0
-169 91 0
-169 -71 0
170 -96 -71 -91 67 0
-170 96 0
-170 71 0
-170 91 0
-170 -67 0
-92 97 0
171 -91 -97 0
-171 91 0
-171 97 0
98 -21 -28 0
-98 21 0
-98 28 0
172 -98 0
-172 98 0
173 -66 -98 68 0
-173 66 0
-173 98 0
-173 -68 0
174 -101 -98 68 66 0
-174 101 0
-174 98 0
-174 -68 0
-174 -66 0
175 -101 -68 -66 -98 0
-175 101 0
-175 68 0
-175 66 0
-175 98 0
101 -67 -98 69 0
-101 67 0
-101 98 0
-101 -69 0
99 -98 -100 0
-99 98 0
-99 100 0
176 -99 86 0
-176 99 0
-176 -86 0
177 -68 -66 -98 0
-177 68 0
-177 66 0
-177 98 0
178 -98 68 66 0
-178 98 0
-178 -68 0
-178 -66 0
103 -66 -98 68 0
-103 66 0
-103 98 0
-103 -68 0
179 -102 -67 -98 69 0
-179 102 0
-179 67 0
-179 98 0
-179 -69 0
180 -103 -69 -98 67 0
-180 103 0
-180 69 0
-180 98 0
-180 -67 0
-99 104 0
181 -98 -104 0
-181 98 0
-181 104 0
-88 89 0
-19 88 86 0
20 52 0
-20 -52 0
-68 -21 -106 0
-68 21 0
-69 -21 -106 0
-69 21 0
110 -20 0
-110 20 0
182 -110 0
-182 110 0
106 -110 0
-106 110 0
111 -24 -27 0
-111 24 0
-111 27 0
183 -111 0
-183 111 0
184 -68 -111 70 0
-184 68 0
-184 111 0
-184 -70 0
185 -114 -111 70 68 0
-185 114 0
-185 111 0
-185 -70 0
-185 -68 0
186 -114 -70 -68 -111 0
-186 114 0
-186 70 0
-186 68 0
-186 111 0
114 -69 -111 71 0
-114 69 0
-114 111 0
-114 -71 0
112 -111 -113 0
-112 111 0
-112 113 0
187 -112 106 0
-187 112 0
-187 -106 0
188 -70 -68 -111 0
-188 70 0
-188 68 0
-188 111 0
189 -111 70 68 0
-189 111 0
-189 -70 0
-189 -68 0
116 -68 -111 70 0
-116 68 0
-116 111 0
-116 -70 0
190 -115 -69 -111 71 0
-190 115 0
-190 69 0
-190 111 0
-190 -71 0
191 -116 -71 -111 69 0
-191 116 0
-191 71 0
-191 111 0
-191 -69 0
-112 117 0
192 -111 -117 0
-192 111 0
-192 117 0
118 -19 -29 0
-118 19 0
-118 29 0
193 -118 0
-193 118 0
194 -68 -118 66 0
-194 68 0
-194 118 0
-194 -66 0
195 -121 -118 66 68 0
-195 121 0
-195 118 0
-195 -66 0
-195 -68 0
196 -121 -66 -68 -118 0
-196 121 0
-196 66 0
-196 68 0
-196 118 0
121 -69 -118 67 0
-121 69 0
-121 118 0
-121 -67 0
119 -118 -120 0
-119 118 0
-119 120 0
197 -119 106 0
-197 119 0
-197 -106 0
198 -66 -68 -118 0
-198 66 0
-198 68 0
-198 118 0
199 -118 66 68 0
-199 118 0
-199 -66 0
-199 -68 0
123 -68 -118 66 0
-123 68 0
-123 118 0
-123 -66 0
200 -122 -69 -118 67 0
-200 122 0
-200 69 0
-200 118 0
-200 -67 0
201 -123 -67 -118 69 0
-201 123 0
-201 67 0
-201 118 0
-201 -69 0
-119 124 0
202 -118 -124 0
-202 118 0
-202 124 0
125 -17 -31 0
-125 17 0
-125 31 0
203 -125 0
-203 125 0
204 -68 -125 64 0
-204 68 0
-204 125 0
-204 -64 0
205 -128 -125 64 68 0
-205 128 0
-205 125 0
-205 -64 0
-205 -68 0
206 -128 -64 -68 -125 0
-206 128 0
-206 64 0
-206 68 0
-206 125 0
128 -69 -125 65 0
-128 69 0
-128 125 0
-128 -65 0
126 -125 -127 0
-126 125 0
-126 127 0
207 -126 106 0
-207 126 0
-207 -106 0
208 -64 -68 -125 0
-208 64 0
-208 68 0
-208 125 0
209 -125 64 68 0
-209 125 0
-209 -64 0
-209 -68 0
130 -68 -125 64 0
-130 68 0
-130 125 0
-130 -64 0
210 -129 -69 -125 65 0
-210 129 0
-210 69 0
-210 125 0
-210 -65 0
211 -130 -65 -125 69 0
-211 130 0
-211 65 0
-211 125 0
-211 -69 0
-126 131 0
212 -125 -131 0
-212 125 0
-212 131 0
-108 109 0
-21 108 106 0
22 53 0
-22 -53 0
23 54 0
-23 -54 0
-70 -24 -133 0
-70 24 0
-71 -24 -133 0
-71 24 0
137 -23 0
-137 23 0
213 -137 0
-213 137 0
133 -137 0
-133 137 0
138 -21 -22 0
-138 21 0
-138 22 0
214 -138 0
-214 138 0
215 -70 -138 68 0
-215 70 0
-215 138 0
-215 -68 0
216 -141 -138 68 70 0
-216 141 0
-216 138 0
-216 -68 0
-216 -70 0
217 -141 -68 -70 -138 0
-217 141 0
-217 68 0
-217 70 0
-217 138 0
141 -71 -138 69 0
-141 71 0
-141 138 0
-141 -69 0
139 -138 -140 0
-139 138 0
-139 140 0
218 -139 133 0
-218 139 0
-218 -133 0
219 -68 -70 -138 0
-219 68 0
-219 70 0
-219 138 0
220 -138 68 70 0
-220 138 0
-220 -68 0
-220 -70 0
143 -70 -138 68 0
-143 70 0
-143 138 0
-143 -68 0
221 -142 -71 -138 69 0
-221 142 0
-221 71 0
-221 138 0
-221 -69 0
222 -143 -69 -138 71 0
-222 143 0
-222 69 0
-222 138 0
-222 -71 0
-139 144 0
223 -138 -144 0
-223 138 0
-223 144 0
145 -19 -26 0
-145 19 0
-145 26 0
224 -145 0
-224 145 0
225 -70 -145 66 0
-225 70 0
-225 145 0
-225 -66 0
226 -148 -145 66 70 0
-226 148 0
-226 145 0
-226 -66 0
-226 -70 0
227 -148 -66 -70 -145 0
-227 148 0
-227 66 0
-227 70 0
-227 145 0
148 -71 -145 67 0
-148 71 0
-148 145 0
-148 -67 0
146 -145 -147 0
-146 145 0
-146 147 0
228 -146 133 0
-228 146 0
-228 -133 0
229 -66 -70 -145 0
-229 66 0
-229 70 0
-229 145 0
230 -145 66 70 0
-230 145 0
-230 -66 0
-230 -70 0
150 -70 -145 66 0
-150 70 0
-150 145 0
-150 -66 0
231 -149 -71 -145 67 0
-231 149 0
-231 71 0
-231 145 0
-231 -67 0
232 -150 -67 -145 71 0
-232 150 0
-232 67 0
-232 145 0
-232 -71 0
-146 151 0
233 -145 -151 0
-233 145 0
-233 151 0
-135 136 0
-24 135 133 0
25 55 0
-25 -55 0
26 56 0
-26 -56 0
27 57 0
-27 -57 0
28 58 0
-28 -58 0
29 59 0
-29 -59 0
30 60 0
-30 -60 0
31 61 0
-31 -61 0
32 62 0
-32 -62 0
33 -32 0
-33 32 0
34 63 0
-34 -63 0
35 -34 0
-35 34 0
36 0
37 0
38 0
39 0
40 0
41 0
42 0
43 0
44 0
45 0
46 0
47 0
48 0
49 0
50 16 0
-50 -16 0
51 18 0
-51 -18 0
52 20 0
-52 -20 0
53 22 0
-53 -22 0
54 23 0
-54 -23 0
55 25 0
-55 -25 0
56 26 0
-56 -26 0
57 27 0
-57 -27 0
58 28 0
-58 -28 0
59 29 0
-59 -29 0
60 30 0
-60 -30 0
61 31 0
-61 -31 0
62 32 0
-62 -32 0
63 34 0
-63 -34 0
-1 0
-1 0
-2 0
-3 0
-4 0
-5 0
-6 0
-7 0
-8 0
-9 0
-10 0
-11 0
-12 0
-13 0
-14 0
-15 0
-17 152 153 0
17 -152 0
17 -153 0
-19 161 162 172 0
19 -161 0
19 -162 0
19 -172 0
-21 182 183 193 203 0
21 -182 0
21 -183 0
21 -193 0
21 -203 0
-24 213 214 224 0
24 -213 0
24 -214 0
24 -224 0
-72 0
-74 0
-80 154 155 156 0
80 -154 0
80 -155 0
80 -156 0
-82 157 158 0
82 -157 0
82 -158 0
-84 159 160 0
84 -159 0
84 -160 0
-85 0
-87 0
-88 166 176 0
88 -166 0
88 -176 0
-89 171 181 0
89 -171 0
89 -181 0
-93 163 164 165 0
93 -163 0
93 -164 0
93 -165 0
-95 167 168 0
95 -167 0
95 -168 0
-97 169 170 0
97 -169 0
97 -170 0
-100 173 174 175 0
100 -173 0
100 -174 0
100 -175 0
-102 177 178 0
102 -177 0
102 -178 0
-104 179 180 0
104 -179 0
104 -180 0
-105 0
-107 0
-108 187 197 207 0
108 -187 0
108 -197 0
108 -207 0
-109 192 202 212 0
109 -192 0
109 -202 0
109 -212 0
-113 184 185 186 0
113 -184 0
113 -185 0
113 -186 0
-115 188 189 0
115 -188 0
115 -189 0
-117 190 191 0
117 -190 0
117 -191 0
-120 194 195 196 0
120 -194 0
120 -195 0
120 -196 0
-122 198 199 0
122 -198 0
122 -199 0
-124 200 201 0
124 -200 0
124 -201 0
-127 204 205 206 0
127 -204 0
127 -205 0
127 -206 0
-129 208 209 0
129 -208 0
129 -209 0
-131 210 211 0
131 -210 0
131 -211 0
-132 0
-134 0
-135 218 228 0
135 -218 0
135 -228 0
-136 223 233 0
136 -223 0
136 -233 0
-140 215 216 217 0
140 -215 0
140 -216 0
140 -217 0
-142 219 220 0
142 -219 0
142 -220 0
-144 221 222 0
144 -221 0
144 -222 0
-147 225 226 227 0
147 -225 0
147 -226 0
147 -227 0
-149 229 230 0
149 -229 0
149 -230 0
-151 231 232 0
151 -231 0
151 -232 0
c p auxilliary 1 2 3 4 5 6 7 8 9 10 11 12 13 14 15 50 51 52 53 54 55 56 57 58 59 60 61 62 63 64 65 66 67 68 69 70 71 72 73 74 75 76 77 78 79 80 81 82 83 84 85 86 87 88 89 90 91 92 93 94 95 96 97 98 99 100 101 102 103 104 105 106 107 108 109 110 111 112 113 114 115 116 117 118 119 120 121 122 123 124 125 126 127 128 129 130 131 132 133 134 135 136 137 138 139 140 141 142 143 144 145 146 147 148 149 150 151 152 153 154 155 156 157 158 159 160 161 162 163 164 165 166 167 168 169 170 171 172 173 174 175 176 177 178 179 180 181 182 183 184 185 186 187 188 189 190 191 192 193 194 195 196 197 198 199 200 201 202 203 204 205 206 207 208 209 210 211 212 213 214 215 216 217 218 219 220 221 222 223 224 225 226 227 228 229 230 231 232 233 0
