aux_benchmarks/smokers/smokers_6_3_prob.lp.cnf
p cnf 74 126
40 0
-1 40 0
1 -40 0
41 0
-2 41 0
2 -41 0
42 0
-3 42 0
3 -42 0
43 0
-4 43 0
4 -43 0
44 0
-5 44 0
5 -44 0
45 0
-6 45 0
6 -45 0
46 0
-7 46 0
7 -46 0
47 0
-8 47 0
8 -47 0
48 0
-9 48 0
9 -48 0
49 0
-10 49 0
10 -49 0
50 0
-11 50 0
11 -50 0
51 0
-12 51 0
12 -51 0
52 0
-13 52 0
13 -52 0
53 0
-14 53 0
14 -53 0
54 -29 -36 0
-54 29 0
-54 36 0
55 -16 0
-55 16 0
56 -27 -37 0
-56 27 0
-56 37 0
-15 54 55 56 0
15 -54 0
15 -55 0
15 -56 0
57 -18 0
-57 18 0
-17 57 0
17 -57 0
58 -35 0
-58 35 0
59 -30 -22 0
-59 30 0
-59 22 0
-19 58 59 0
19 -58 0
19 -59 0
60 -33 -15 0
-60 33 0
-60 15 0
61 -28 -38 0
-61 28 0
-61 38 0
62 -36 0
-62 36 0
-22 60 61 62 0
22 -60 0
22 -61 0
22 -62 0
63 -38 0
-63 38 0
64 -31 -22 0
-64 31 0
-64 22 0
-24 63 64 0
24 -63 0
24 -64 0
65 -26 0
-65 26 0
-25 65 0
25 -65 0
66 -20 0
-66 20 0
-35 66 0
35 -66 0
67 -39 0
-67 39 0
68 -28 -37 0
-68 28 0
-68 37 0
-36 67 68 0
36 -67 0
36 -68 0
69 -23 0
-69 23 0
70 -31 -39 0
-70 31 0
-70 39 0
-37 69 70 0
37 -69 0
37 -70 0
71 -37 0
-71 37 0
72 -34 -15 0
-72 34 0
-72 15 0
-38 71 72 0
38 -71 0
38 -72 0
73 -21 0
-73 21 0
74 -32 -35 0
-74 32 0
-74 35 0
-39 73 74 0
39 -73 0
39 -74 0
c p weight 1 1.0;1.0;1.0;1.0;1.0;1.0 0
c p weight -1 1.0;1.0;1.0;1.0;1.0;1.0 0
c p weight 2 1.0;1.0;1.0;1.0;1.0;1.0 0
c p weight -2 1.0;1.0;1.0;1.0;1.0;1.0 0
c p weight 3 1.0;1.0;1.0;1.0;1.0;1.0 0
c p weight -3 1.0;1.0;1.0;1.0;1.0;1.0 0
c p weight 4 1.0;1.0;1.0;1.0;1.0;1.0 0
c p weight -4 1.0;1.0;1.0;1.0;1.0;1.0 0
c p weight 5 1.0;1.0;1.0;1.0;1.0;1.0 0
c p weight -5 1.0;1.0;1.0;1.0;1.0;1.0 0
c p weight 6 1.0;1.0;1.0;1.0;1.0;1.0 0
c p weight -6 1.0;1.0;1.0;1.0;1.0;1.0 0
c p weight 7 1.0;1.0;1.0;1.0;1.0;1.0 0
c p weight -7 1.0;1.0;1.0;1.0;1.0;1.0 0
c p weight 8 1.0;1.0;1.0;1.0;1.0;1.0 0
c p weight -8 1.0;1.0;1.0;1.0;1.0;1.0 0
c p weight 9 1.0;1.0;1.0;1.0;1.0;1.0 0
c p weight -9 1.0;1.0;1.0;1.0;1.0;1.0 0
c p weight 10 1.0;1.0;1.0;1.0;1.0;1.0 0
c p weight -10 1.0;1.0;1.0;1.0;1.0;1.0 0
c p weight 11 1.0;1.0;1.0;1.0;1.0;1.0 0
c p weight -11 1.0;1.0;1.0;1.0;1.0;1.0 0
c p weight 12 1.0;1.0;1.0;1.0;1.0;1.0 0
c p weight -12 1.0;1.0;1.0;1.0;1.0;1.0 0
c p weight 13 1.0;1.0;1.0;1.0;1.0;1.0 0
c p weight -13 1.0;1.0;1.0;1.0;1.0;1.0 0
c p weight 14 1.0;1.0;1.0;1.0;1.0;1.0 0
c p weight -14 1.0;1.0;1.0;1.0;1.0;1.0 0
c p weight 15 1.0;1.0;1.0;1.0;1.0;1.0 0
c p weight -15 0.0;1.0;1.0;1.0;1.0;1.0 0
c p weight 16 0.5;0.5;0.5;0.5;0.5;0.5 0
c p weight -16 0.5;0.5;0.5;0.5;0.5;0.5 0
c p weight 17 1.0;1.0;1.0;1.0;1.0;1.0 0
c p weight -17 1.0;0.0;1.0;1.0;1.0;1.0 0
c p weight 18 0.5;0.5;0.5;0.5;0.5;0.5 0
c p weight -18 0.5;0.5;0.5;0.5;0.5;0.5 0
c p weight 19 1.0;1.0;1.0;1.0;1.0;1.0 0
c p weight -19 1.0;1.0;0.0;1.0;1.0;1.0 0
c p weight 20 0.5;0.5;0.5;0.5;0.5;0.5 0
c p weight -20 0.5;0.5;0.5;0.5;0.5;0.5 0
c p weight 21 0.5;0.5;0.5;0.5;0.5;0.5 0
c p weight -21 0.5;0.5;0.5;0.5;0.5;0.5 0
c p weight 22 1.0;1.0;1.0;1.0;1.0;1.0 0
c p weight -22 1.0;1.0;1.0;0.0;1.0;1.0 0
c p weight 23 0.5;0.5;0.5;0.5;0.5;0.5 0
c p weight -23 0.5;0.5;0.5;0.5;0.5;0.5 0
c p weight 24 1.0;1.0;1.0;1.0;1.0;1.0 0
c p weight -24 1.0;1.0;1.0;1.0;0.0;1.0 0
c p weight 25 1.0;1.0;1.0;1.0;1.0;1.0 0
c p weight -25 1.0;1.0;1.0;1.0;1.0;0.0 0
c p weight 26 0.5;0.5;0.5;0.5;0.5;0.5 0
c p weight -26 0.5;0.5;0.5;0.5;0.5;0.5 0
c p weight 27 0.5;0.5;0.5;0.5;0.5;0.5 0
c p weight -27 0.5;0.5;0.5;0.5;0.5;0.5 0
c p weight 28 0.5;0.5;0.5;0.5;0.5;0.5 0
c p weight -28 0.5;0.5;0.5;0.5;0.5;0.5 0
c p weight 29 0.5;0.5;0.5;0.5;0.5;0.5 0
c p weight -29 0.5;0.5;0.5;0.5;0.5;0.5 0
c p weight 30 0.5;0.5;0.5;0.5;0.5;0.5 0
c p weight -30 0.5;0.5;0.5;0.5;0.5;0.5 0
c p weight 31 0.5;0.5;0.5;0.5;0.5;0.5 0
c p weight -31 0.5;0.5;0.5;0.5;0.5;0.5 0
c p weight 32 0.5;0.5;0.5;0.5;0.5;0.5 0
c p weight -32 0.5;0.5;0.5;0.5;0.5;0.5 0
c p weight 33 0.5;0.5;0.5;0.5;0.5;0.5 0
c p weight -33 0.5;0.5;0.5;0.5;0.5;0.5 0
c p weight 34 0.5;0.5;0.5;0.5;0.5;0.5 0
c p weight -34 0.5;0.5;0.5;0.5;0.5;0.5 0
c p weight 35 1.0;1.0;1.0;1.0;1.0;1.0 0
c p weight -35 1.0;1.0;1.0;1.0;1.0;1.0 0
c p weight 36 1.0;1.0;1.0;1.0;1.0;1.0 0
c p weight -36 1.0;1.0;1.0;1.0;1.0;1.0 0
c p weight 37 1.0;1.0;1.0;1.0;1.0;1.0 0
c p weight -37 1.0;1.0;1.0;1.0;1.0;1.0 0
c p weight 38 1.0;1.0;1.0;1.0;1.0;1.0 0
c p weight -38 1.0;1.0;1.0;1.0;1.0;1.0 0
c p weight 39 1.0;1.0;1.0;1.0;1.0;1.0 0
c p weight -39 1.0;1.0;1.0;1.0;1.0;1.0 0
c p weight 40 1.0;1.0;1.0;1.0;1.0;1.0 0
c p weight -40 1.0;1.0;1.0;1.0;1.0;1.0 0
c p weight 41 1.0;1.0;1.0;1.0;1.0;1.0 0
c p weight -41 1.0;1.0;1.0;1.0;1.0;1.0 0
c p weight 42 1.0;1.0;1.0;1.0;1.0;1.0 0
c p weight -42 1.0;1.0;1.0;1.0;1.0;1.0 0
c p weight 43 1.0;1.0;1.0;1.0;1.0;1.0 0
c p weight -43 1.0;1.0;1.0;1.0;1.0;1.0 0
c p weight 44 1.0;1.0;1.0;1.0;1.0;1.0 0
c p weight -44 1.0;1.0;1.0;1.0;1.0;1.0 0
c p weight 45 1.0;1.0;1.0;1.0;1.0;1.0 0
c p weight -45 1.0;1.0;1.0;1.0;1.0;1.0 0
c p weight 46 1.0;1.0;1.0;1.0;1.0;1.0 0
c p weight -46 1.0;1.0;1.0;1.0;1.0;1.0 0
c p weight 47 1.0;1.0;1.0;1.0;1.0;1.0 0
c p weight -47 1.0;1.0;1.0;1.0;1.0;1.0 0
c p weight 48 1.0;1.0;1.0;1.0;1.0;1.0 0
c p weight -48 1.0;1.0;1.0;1.0;1.0;1.0 0
c p weight 49 1.0;1.0;1.0;1.0;1.0;1.0 0
c p weight -49 1.0;1.0;1.0;1.0;1.0;1.0 0
c p weight 50 1.0;1.0;1.0;1.0;1.0;1.0 0
c p weight -50 1.0;1.0;1.0;1.0;1.0;1.0 0
c p weight 51 1.0;1.0;1.0;1.0;1.0;1.0 0
c p weight -51 1.0;1.0;1.0;1.0;1.0;1.0 0
c p weight 52 1.0;1.0;1.0;1.0;1.0;1.0 0
c p weight -52 1.0;1.0;1.0;1.0;1.0;1.0 0
c p weight 53 1.0;1.0;1.0;1.0;1.0;1.0 0
c p weight -53 1.0;1.0;1.0;1.0;1.0;1.0 0
c p weight 54 1.0;1.0;1.0;1.0;1.0;1.0 0
c p weight -54 1.0;1.0;1.0;1.0;1.0;1.0 0
c p weight 55 1.0;1.0;1.0;1.0;1.0;1.0 0
c p weight -55 1.0;1.0;1.0;1.0;1.0;1.0 0
c p weight 56 1.0;1.0;1.0;1.0;1.0;1.0 0
c p weight -56 1.0;1.0;1.0;1.0;1.0;1.0 0
c p weight 57 1.0;1.0;1.0;1.0;1.0;1.0 0
c p weight -57 1.0;1.0;1.0;1.0;1.0;1.0 0
c p weight 58 1.0;1.0;1.0;1.0;1.0;1.0 0
c p weight -58 1.0;1.0;1.0;1.0;1.0;1.0 0
c p weight 59 1.0;1.0;1.0;1.0;1.0;1.0 0
c p weight -59 1.0;1.0;1.0;1.0;1.0;1.0 0
c p weight 60 1.0;1.0;1.0;1.0;1.0;1.0 0
c p weight -60 1.0;1.0;1.0;1.0;1.0;1.0 0
c p weight 61 1.0;1.0;1.0;1.0;1.0;1.0 0
c p weight -61 1.0;1.0;1.0;1.0;1.0;1.0 0
c p weight 62 1.0;1.0;1.0;1.0;1.0;1.0 0
c p weight -62 1.0;1.0;1.0;1.0;1.0;1.0 0
c p weight 63 1.0;1.0;1.0;1.0;1.0;1.0 0
c p weight -63 1.0;1.0;1.0;1.0;1.0;1.0 0
c p weight 64 1.0;1.0;1.0;1.0;1.0;1.0 0
c p weight -64 1.0;1.0;1.0;1.0;1.0;1.0 0
c p weight 65 1.0;1.0;1.0;1.0;1.0;1.0 0
c p weight -65 1.0;1.0;1.0;1.0;1.0;1.0 0
c p weight 66 1.0;1.0;1.0;1.0;1.0;1.0 0
c p weight -66 1.0;1.0;1.0;1.0;1.0;1.0 0
c p weight 67 1.0;1.0;1.0;1.0;1.0;1.0 0
c p weight -67 1.0;1.0;1.0;1.0;1.0;1.0 0
c p weight 68 1.0;1.0;1.0;1.0;1.0;1.0 0
c p weight -68 1.0;1.0;1.0;1.0;1.0;1.0 0
c p weight 69 1.0;1.0;1.0;1.0;1.0;1.0 0
c p weight -69 1.0;1.0;1.0;1.0;1.0;1.0 0
c p weight 70 1.0;1.0;1.0;1.0;1.0;1.0 0
c p weight -70 1.0;1.0;1.0;1.0;1.0;1.0 0
c p weight 71 1.0;1.0;1.0;1.0;1.0;1.0 0
c p weight -71 1.0;1.0;1.0;1.0;1.0;1.0 0
c p weight 72 1.0;1.0;1.0;1.0;1.0;1.0 0
c p weight -72 1.0;1.0;1.0;1.0;1.0;1.0 0
c p weight 73 1.0;1.0;1.0;1.0;1.0;1.0 0
c p weight -73 1.0;1.0;1.0;1.0;1.0;1.0 0
c p weight 74 1.0;1.0;1.0;1.0;1.0;1.0 0
c p weight -74 1.0;1.0;1.0;1.0;1.0;1.0 0
c p semirings aspmc.semirings.probabilistic 0
c p quantify 1 2 3 4 5 6 7 8 9 10 11 12 13 14 15 16 17 18 19 20 21 22 23 24 25 26 27 28 29 30 31 32 33 34 35 36 37 38 39 40 41 42 43 44 45 46 47 48 49 50 51 52 53 54 55 56 57 58 59 60 61 62 63 64 65 66 67 68 69 70 71 72 73 74 0
c p auxilliary 1 2 3 4 5 6 7 8 9 10 11 12 13 14 35 36 37 38 39 40 41 42 43 44 45 46 47 48 49 50 51 52 53 54 55 56 57 58 59 60 61 62 63 64 65 66 67 68 69 70 71 72 73 74 0
